
Gurobi 9.0.1 (linux64) logging started Thu Apr 30 22:00:56 2020

Gurobi Optimizer version 9.0.1 build v9.0.1rc0 (linux64)
Optimize a model with 32222 rows, 27380 columns and 603960 nonzeros
Model fingerprint: 0xaae0718d
Variable types: 0 continuous, 27380 integer (27342 binary)
Coefficient statistics:
  Matrix range     [1e+00, 2e+01]
  Objective range  [2e+00, 1e+02]
  Bounds range     [1e+00, 1e+00]
  RHS range        [1e+00, 1e+00]

User MIP start produced solution with objective 1199 (0.86s)
Loaded user MIP start with objective 1199

Presolve removed 14186 rows and 9387 columns (presolve time = 5s) ...
Presolve removed 14228 rows and 9447 columns (presolve time = 10s) ...
Presolve removed 14228 rows and 9447 columns
Presolve time: 11.22s
Presolved: 17994 rows, 17933 columns, 501060 nonzeros
Variable types: 0 continuous, 17933 integer (17897 binary)

Root simplex log...

Iteration    Objective       Primal Inf.    Dual Inf.      Time
       0    0.0000000e+00   1.940000e+02   0.000000e+00     14s
    1404    5.8266674e+02   5.350919e+03   0.000000e+00     15s
    3313    5.8862509e+02   3.493934e+03   0.000000e+00     20s
    4558    5.9211142e+02   2.586018e+04   0.000000e+00     25s
    5886    5.9742416e+02   2.485081e+04   0.000000e+00     30s
    7048    5.9991740e+02   8.594442e+03   0.000000e+00     35s
    8127    6.0156260e+02   9.714927e+03   0.000000e+00     40s
    9372    6.0231549e+02   6.758272e+03   0.000000e+00     45s
Warning: Markowitz tolerance tightened to 0.03125
   10617    6.0342276e+02   2.215676e+04   0.000000e+00     50s
   11696    6.0555788e+02   1.772718e+04   0.000000e+00     55s
   12775    6.0728054e+02   1.686214e+04   0.000000e+00     60s
   13771    6.0820218e+02   2.999490e+04   0.000000e+00     65s
   14684    6.0935222e+02   2.053624e+05   0.000000e+00     70s
   15597    6.1126003e+02   2.007177e+04   0.000000e+00     75s
   16510    6.1249822e+02   3.559568e+03   0.000000e+00     80s
   17589    6.1408512e+02   1.567637e+03   0.000000e+00     85s
   18593    6.1453557e+02   4.215705e+03   0.000000e+00     90s
   19704    6.1538344e+02   4.717992e+03   0.000000e+00     95s
   20729    6.1591440e+02   7.555257e+02   0.000000e+00    100s
   21904    6.1651440e+02   2.005469e+04   0.000000e+00    105s
   22900    6.1742717e+02   1.124502e+03   0.000000e+00    110s
   23814    6.1773353e+02   1.691297e+03   0.000000e+00    115s
   24755    6.1803768e+02   6.991154e+02   0.000000e+00    120s
   25585    6.1853170e+02   1.866828e+04   0.000000e+00    125s
   26506    6.1890018e+02   5.221047e+03   0.000000e+00    131s
   27336    6.1920953e+02   1.732828e+03   0.000000e+00    135s
   28255    6.1948549e+02   1.877646e+03   0.000000e+00    140s
   29227    6.1964060e+02   1.010200e+02   0.000000e+00    146s
   30082    6.1981237e+02   1.074621e+02   0.000000e+00    150s
   31078    6.1990543e+02   1.662956e-01   0.000000e+00    155s
   31101    6.1990547e+02   0.000000e+00   0.000000e+00    156s

Root relaxation: objective 6.199055e+02, 31101 iterations, 143.41 seconds

    Nodes    |    Current Node    |     Objective Bounds      |     Work
 Expl Unexpl |  Obj  Depth IntInf | Incumbent    BestBd   Gap | It/Node Time

     0     0  619.90547    0 2017 1199.00000  619.90547  48.3%     -  163s
     0     0  664.60209    0 1972 1199.00000  664.60209  44.6%     -  295s
     0     0  669.22522    0 1951 1199.00000  669.22522  44.2%     -  352s
     0     0  669.82747    0 1886 1199.00000  669.82747  44.1%     -  376s
     0     0  669.85225    0 1841 1199.00000  669.85225  44.1%     -  382s
     0     0  669.85225    0 1846 1199.00000  669.85225  44.1%     -  384s
     0     0  682.67888    0 2074 1199.00000  682.67888  43.1%     -  507s
     0     0  684.16174    0 2019 1199.00000  684.16174  42.9%     -  561s
     0     0  684.20370    0 1996 1199.00000  684.20370  42.9%     -  566s
     0     0  684.21346    0 1990 1199.00000  684.21346  42.9%     -  570s
     0     0  697.62055    0 2156 1199.00000  697.62055  41.8%     -  727s
     0     0  699.24067    0 2178 1199.00000  699.24067  41.7%     -  803s
     0     0  699.56389    0 2134 1199.00000  699.56389  41.7%     -  829s
     0     0  699.58866    0 2115 1199.00000  699.58866  41.7%     -  837s
     0     0  699.60751    0 2125 1199.00000  699.60751  41.7%     -  842s
     0     0  699.60790    0 2121 1199.00000  699.60790  41.7%     -  845s
     0     0  702.05595    0 2225 1199.00000  702.05595  41.4%     -  969s
     0     0  702.47543    0 2168 1199.00000  702.47543  41.4%     - 1028s
     0     0  702.51560    0 2178 1199.00000  702.51560  41.4%     - 1039s
     0     0  702.52689    0 2165 1199.00000  702.52689  41.4%     - 1044s
     0     0  703.62769    0 2203 1199.00000  703.62769  41.3%     - 1112s
     0     0  703.84227    0 2220 1199.00000  703.84227  41.3%     - 1158s
     0     0  703.91059    0 2238 1199.00000  703.91059  41.3%     - 1176s
     0     0  703.91809    0 2264 1199.00000  703.91809  41.3%     - 1181s
     0     0  704.68574    0 2212 1199.00000  704.68574  41.2%     - 1245s
     0     0  704.75503    0 2238 1199.00000  704.75503  41.2%     - 1281s
     0     0  704.77257    0 2240 1199.00000  704.77257  41.2%     - 1288s
     0     0  705.53791    0 2286 1199.00000  705.53791  41.2%     - 1341s
     0     0  705.61446    0 2300 1199.00000  705.61446  41.1%     - 1358s
     0     0  705.63757    0 2297 1199.00000  705.63757  41.1%     - 1366s
     0     0  705.64123    0 2307 1199.00000  705.64123  41.1%     - 1370s
     0     0  706.26108    0 2274 1199.00000  706.26108  41.1%     - 1422s
     0     0  706.34269    0 2259 1199.00000  706.34269  41.1%     - 1440s
     0     0  706.36069    0 2271 1199.00000  706.36069  41.1%     - 1449s
     0     0  706.92465    0 2308 1199.00000  706.92465  41.0%     - 1498s
     0     0  706.99723    0 2329 1199.00000  706.99723  41.0%     - 1514s
     0     0  707.01526    0 2331 1199.00000  707.01526  41.0%     - 1523s
     0     0  707.56548    0 2297 1199.00000  707.56548  41.0%     - 1566s
     0     0  707.66806    0 2307 1199.00000  707.66806  41.0%     - 1615s
     0     0  707.69281    0 2285 1199.00000  707.69281  41.0%     - 1625s
     0     0  707.69794    0 2290 1199.00000  707.69794  41.0%     - 1629s
     0     0  707.89286    0 2350 1199.00000  707.89286  41.0%     - 1659s
     0     0  707.94140    0 2376 1199.00000  707.94140  41.0%     - 1675s
     0     0  707.94780    0 2373 1199.00000  707.94780  41.0%     - 1681s
     0     0  708.24531    0 2289 1199.00000  708.24531  40.9%     - 1715s
     0     0  708.28247    0 2283 1199.00000  708.28247  40.9%     - 1731s
     0     0  708.28767    0 2299 1199.00000  708.28767  40.9%     - 1737s
     0     0  708.55723    0 2293 1199.00000  708.55723  40.9%     - 1769s
     0     0  708.63863    0 2287 1199.00000  708.63863  40.9%     - 1786s
     0     0  708.68868    0 2310 1199.00000  708.68868  40.9%     - 1797s
     0     0  708.69132    0 2325 1199.00000  708.69132  40.9%     - 1801s
     0     0  709.12847    0 2305 1199.00000  709.12847  40.9%     - 1850s
     0     0  709.25634    0 2308 1199.00000  709.25634  40.8%     - 1876s
     0     0  709.28965    0 2282 1199.00000  709.28965  40.8%     - 1886s
     0     0  709.30852    0 2295 1199.00000  709.30852  40.8%     - 1893s
     0     0  709.76297    0 2219 1199.00000  709.76297  40.8%     - 1934s
     0     0  709.86444    0 2242 1199.00000  709.86444  40.8%     - 1956s
     0     0  709.88051    0 2264 1199.00000  709.88051  40.8%     - 1963s
     0     0  710.15682    0 2256 1199.00000  710.15682  40.8%     - 2002s
     0     0  710.23293    0 2246 1199.00000  710.23293  40.8%     - 2019s
     0     0  710.24829    0 2262 1199.00000  710.24829  40.8%     - 2027s
     0     0  710.47177    0 2274 1199.00000  710.47177  40.7%     - 2060s
     0     0  710.51530    0 2298 1199.00000  710.51530  40.7%     - 2074s
     0     0  710.52283    0 2296 1199.00000  710.52283  40.7%     - 2079s
     0     0  710.66609    0 2344 1199.00000  710.66609  40.7%     - 2108s
     0     0  710.70398    0 2332 1199.00000  710.70398  40.7%     - 2161s
     0     0  710.71431    0 2340 1199.00000  710.71431  40.7%     - 2168s
     0     0  711.01871    0 2285 1199.00000  711.01871  40.7%     - 2205s
     0     0  711.06218    0 2294 1199.00000  711.06218  40.7%     - 2219s
     0     0  711.06765    0 2293 1199.00000  711.06765  40.7%     - 2223s
     0     0  711.27876    0 2273 1199.00000  711.27876  40.7%     - 2253s
     0     0  711.27876    0 2273 1199.00000  711.27876  40.7%     - 2271s
     0     2  711.28119    0 2259 1199.00000  711.28119  40.7%     - 2630s
     1     3  711.97581    1 2239 1199.00000  711.28119  40.7%  5934 2680s
     2     4  719.30250    1 2029 1199.00000  711.97581  40.6% 15974 2911s
     3     5  712.18584    2 2276 1199.00000  711.97581  40.6% 11911 2945s
     4     6  731.93627    2 1963 1199.00000  712.18691  40.6% 25572 3508s
     5     7  712.89667    3 2209 1199.00000  712.18985  40.6% 21941 3574s

Cutting planes:
  Gomory: 1
  Cover: 1
  MIR: 147
  StrongCG: 23
  Zero half: 53
  Mod-K: 10
  RLT: 833

Explored 6 nodes (350442 simplex iterations) in 3600.04 seconds
Thread count was 1 (of 40 available processors)

Solution count 1: 1199 

Time limit reached
Best objective 1.199000000000e+03, best bound 7.130000000000e+02, gap 40.5338%

User-callback calls 47191, time in user-callback 0.16 sec
